c SAT problem
p wcnf 93 209
1 90 -3165 0
1 105 3075 0
1 105 -3135 0
1 -3120 -196 0
1 3120 -75 0
1 3135 105 0
1 -3135 3120 0
1 3150 -136 0
1 -3165 166 0
1 -3165 -136 0
1 3165 75 0
1 -3165 -121 0
1 120 -3090 0
1 150 -3045 0
1 -165 -3105 0
1 165 -150 0
1 165 -3000 0
1 -3060 -240 0
1 -3075 -225 0
1 -3075 195 0
1 3075 -3076 0
1 -3090 3105 0
1 3090 -165 0
1 3105 -3090 0
1 3105 150 0
1 -180 195 0
1 195 -196 0
1 195 180 0
1 -195 3030 0
1 -210 3045 0
1 -210 3060 0
1 210 3000 0
1 -225 -3060 0
1 3000 210 0
1 3000 -315 0
1 3015 300 0
1 -3030 -300 0
1 3030 -150 0
1 3030 -3031 0
1 3045 195 0
1 -3045 3046 0
1 3045 -150 0
1 61 -3330 0
1 -76 -3330 0
1 -91 -3330 0
1 91 90 0
1 106 -3345 0
1 3315 -106 0
1 3315 -76 0
1 3315 -3316 0
1 -3315 -151 0
1 3345 -76 0
1 -3345 91 0
1 121 3300 0
1 -121 3285 0
1 -121 3165 0
1 -136 3300 0
1 -151 166 0
1 -151 -3285 0
1 166 3255 0
1 -166 -3180 0
1 166 -3150 0
1 3240 196 0
1 -3240 -136 0
1 3240 -3241 0
1 3240 -241 0
1 3240 181 0
1 3240 -121 0
1 -3255 181 0
1 3255 121 0
1 3255 91 0
1 -3270 3271 0
1 -3270 -241 0
1 3285 151 0
1 -3285 -3286 0
1 3285 91 0
1 -181 -3120 0
1 -181 -3165 0
1 196 -3090 0
1 196 -3135 0
1 211 -3210 0
1 -211 -3151 0
1 -211 3255 0
1 -211 3195 0
1 -226 -3240 0
1 226 3151 0
1 -226 211 0
1 -226 3195 0
1 -226 3166 0
1 3180 -226 0
1 3180 -316 0
1 3195 166 0
1 -3195 -240 0
1 -3195 -3196 0
1 3195 285 0
1 3225 166 0
1 3225 -301 0
1 3225 -271 0
1 3225 -316 0
1 240 3151 0
1 -240 3121 0
1 -240 3060 0
1 255 -240 0
1 255 3030 0
1 -270 -3180 0
1 -270 3121 0
1 270 -3091 0
1 285 270 0
1 285 3121 0
1 285 3091 0
1 -285 3061 0
1 -285 -286 0
1 3121 226 0
1 -3121 -330 0
1 3121 240 0
1 -3121 376 0
1 -3121 345 0
1 -3136 -330 0
1 3136 300 0
1 -3136 240 0
1 -3136 3121 0
1 -3136 285 0
1 3151 3150 0
1 -3151 -211 0
1 3151 -346 0
1 -3151 316 0
1 3151 -255 0
1 -3166 301 0
1 3166 -3165 0
1 3166 376 0
1 3166 -346 0
1 300 -3136 0
1 -300 -3091 0
1 -315 -3015 0
1 -315 -3091 0
1 315 316 0
1 -330 -3076 0
1 330 3091 0
1 330 3061 0
1 345 3106 0
1 -345 -3076 0
1 -345 3031 0
1 -345 3001 0
1 -3061 -360 0
1 3061 300 0
1 3061 -270 0
1 3061 -3060 0
1 3061 315 0
1 -3076 405 0
1 -3091 -270 0
1 -3091 345 0
1 -3091 -315 0
1 3106 -3105 0
1 3106 300 0
1 -3106 3091 0
1 -360 3061 0
1 -360 -375 0
1 375 3046 0
1 375 3031 0
1 390 3031 0
1 405 406 0
1 -405 -3031 0
1 -3001 -330 0
1 3001 3000 0
1 3016 -360 0
1 3016 330 0
1 3016 405 0
1 3031 -360 0
1 3031 3030 0
1 3031 -375 0
1 -3046 -3045 0
1 241 -256 0
1 -241 3210 0
1 -241 240 0
1 256 -3255 0
1 -256 255 0
1 271 3331 0
1 -271 270 0
1 271 -3316 0
1 286 3346 0
1 286 3225 0
1 -286 -285 0
1 -3316 241 0
1 -3331 -3330 0
1 -3331 271 0
1 301 -3241 0
1 301 -300 0
1 -301 3151 0
1 -301 -3286 0
1 -301 3225 0
1 316 3210 0
1 331 3241 0
1 331 -3286 0
1 -331 346 0
1 346 3196 0
1 -3241 3240 0
1 3256 -316 0
1 361 -360 0
1 361 -3181 0
1 -376 -3136 0
1 -376 -375 0
1 391 -3181 0
1 391 406 0
1 406 3256 0
1 3196 361 0
1 3211 391 0
1 -3211 -3210 0
1 3226 391 0
1 3226 -3225 0
